Version identifier: 22.1.1.0 | 2022-11-28 | 9160aff4d
CPXPARAM_ClockType                               1
CPXPARAM_Read_DataCheck                          1
CPXPARAM_Threads                                 1
CPXPARAM_TimeLimit                               7200
CPXPARAM_MIP_Tolerances_AbsMIPGap                0
CPXPARAM_MIP_Tolerances_MIPGap                   0
CPXPARAM_MIP_Tolerances_Integrality              0
Tried aggregator 5 times.
MIP Presolve eliminated 5136 rows and 1318 columns.
MIP Presolve modified 2 coefficients.
Aggregator did 303 substitutions.
Reduced MIP has 1814 rows, 939 columns, and 4936 nonzeros.
Reduced MIP has 939 binaries, 0 generals, 0 SOSs, and 0 indicators.
Presolve time = 0.01 sec. (10.72 ticks)
Found incumbent of value 0.000000 after 0.02 sec. (12.14 ticks)
Probing time = 0.01 sec. (2.85 ticks)
Tried aggregator 2 times.
Detecting symmetries...
MIP Presolve eliminated 3 rows and 3 columns.
MIP Presolve modified 2 coefficients.
Aggregator did 1 substitutions.
Reduced MIP has 1810 rows, 935 columns, and 4921 nonzeros.
Reduced MIP has 935 binaries, 0 generals, 0 SOSs, and 0 indicators.
Presolve time = 0.01 sec. (8.52 ticks)
Probing time = 0.01 sec. (2.18 ticks)
Clique table members: 3471.
MIP emphasis: balance optimality and feasibility.
MIP search method: dynamic search.
Parallel mode: none, using 1 thread.
Root relaxation solution time = 0.01 sec. (3.97 ticks)

        Nodes                                         Cuts/
   Node  Left     Objective  IInf  Best Integer    Best Bound    ItCnt     Gap

*     0+    0                            0.0000      188.0000              --- 
*     0     0      integral     0      188.0000      188.0000      203    0.00%
Elapsed time = 0.06 sec. (32.76 ticks, tree = 0.00 MB, solutions = 2)

Root node processing (before b&c):
  Real time             =    0.06 sec. (32.86 ticks)
Sequential b&c:
  Real time             =    0.00 sec. (0.00 ticks)
                          ------------
Total (root+branch&cut) =    0.06 sec. (32.86 ticks)
Solution is feasible.

---------------------
@@@ MIP_optimal
>>> Benchmark mc2024_track1_184.cnf k 2 OPT 188 TimeCost 0.4976387023925781 TimeSolve 0.05782151222229004 TimeRead 0.005719184875488281 TimeTrans 0.4340980052947998
